100
32
2
14
21
29
9
4
19
29
29
16
4
12
17
9
9
11
11
2
1
20
2
4
1
1
1
1
1
2
17
1
1
17
3
1
19
3
2
2
1
1
1
1
1
1
5
1
2
1
1
5
2
2
2
1
2
1
1
2
17
2
1
1
22
1
2
1
3
2
2
1
1
1
19
2
1
4
1
3
2
1
1
18
4
1
2
3
1
1
16
1
7
1
1
1
1
2
2
2
5
2